WARNING: for repeatability, setting FPU to use double precision
============================[ Problem Statistics ]=============================
|                                                                             |
|  Number of variables:            50                                         |
|  Number of clauses:             218                                         |
|  Parse time:                   0.00 s                                       |
|                                                                             |
============================[ Search Statistics ]==============================
| Conflicts |          ORIGINAL         |          LEARNT          | Progress |
|           |    Vars  Clauses Literals |    Limit  Clauses Lit/Cl |          |
===============================================================================
===============================================================================
restarts              : 1
conflicts             : 55             (32622 /sec)
decisions             : 64             (0.00 % random) (37960 /sec)
propagations          : 651            (386121 /sec)
conflict literals     : 202            (11.79 % deleted)
Memory used           : 20.00 MB
CPU time              : 0.001686 s

UNSATISFIABLE
